0 42 53 66 67 36 73 49 0 
0 5 78 61 16 43 68 8 37 2 34 0 
0 70 76 50 45 22 4 32 58 0 
0 10 63 62 23 44 12 0 
0 3 39 60 29 74 13 0 
0 17 27 59 30 6 24 11 0 
0 40 21 7 1 0 
0 51 77 46 41 15 33 55 9 54 72 38 0 
0 64 25 19 47 56 69 65 35 26 57 75 20 31 0 
0 71 14 48 18 79 28 52 0 
